certificates/rado_a15_c186_N52.drat
-46 -52 0
-50 15 -52 0
15 -52 0
d -50 15 -52 0
-52 0
-10 -15 0
-15 0
13 0
-4 0
-22 0
43 0
-34 0
10 0
-46 0
-49 0
-1 0
-19 0
-7 0
12 0
0
